unsat
(:elim-unconstrained  2
 :max-memory          18.42
 :memory              18.32
 :nlsat-arith-var     3
 :nlsat-atoms         6
 :nlsat-bool-var      1
 :nlsat-clauses       6
 :nlsat-conflicts     1
 :nlsat-propagations  4
 :nlsat-stages        2
 :num-allocs          50308
 :rlimit-count        1093
 :solve-eqs-elim-vars 1
 :solve-eqs-steps     1
 :time                0.00
 :total-time          0.01)
